\ENCODING=ISO-8859-1
\Problem name: MasterModelWithSR

Minimize
 obj: 327.7833419 x1 + 330.5118113 x2 + 380.5469048 x3 + 286.8389316 x4
      + 318.688179 x5 + 261.4920129 x6 + 309.0636331 x7 + 280.3896786 x8
      + 311.5334316 x9 + 278.3691807 x10 + 278.3691807 x11 + 295.6703254 x12
      + 289.7736526 x13 + 290.1156724 x14 + 257.2899783 x15 + 344.266656 x16
      + 308.5696112 x17 + 328.6236235 x18 + 270.5469444 x19 + 290.7253942 x20
      + 306.0312106 x21 + 256.7035735 x22 + 290.5126502 x23 + 268.1720009 x24
      + 278.4740513 x25 + 269.7993634 x26 + 272.9005153 x27 + 270.4594671 x28
      + 290.6415896 x29 + 287.9282266 x30 + 252.7027274 x31
Subject To
 c1:  x1 + x2 + x3 <= 1
 c2:  x4 <= 1
 c3:  x1 + x2 + x3 + x5 + x6 + x7 <= 1
 c4:  x3 <= 1
 c5:  x4 <= 1
 c6:  x3 <= 1
 c7:  x4 <= 1
 c8:  x1 + x2 + x3 + x5 + x7 + x8 <= 1
 c9:  x7 + x8 + x9 <= 1
 c10: x10 + x11 <= 1
 c11: x10 + x11 + x12 <= 1
 c12: x2 + x7 + x8 + x9 + x13 + x14 <= 1
 c13: x10 + x11 + x12 <= 1
 c14: x2 + x14 + x15 <= 1
 c15: x12 <= 1
 c16: <= 1
 c17: x16 + x17 + x18 + x19 + x20 + x21 <= 1
 c18: x22 + x23 + x24 + x25 <= 1
 c19: x16 <= 1
 c20: x22 + x25 + x26 + x27 <= 1
 c21: x16 + x17 + x18 + x20 + x21 <= 1
 c22: x5 + x6 + x9 + x13 + x14 + x15 <= 1
 c23: x18 + x22 + x24 + x27 + x28 + x29 <= 1
 c24: x5 + x6 + x9 + x13 + x14 + x15 <= 1
 c25: x21 + x23 + x25 + x27 + x29  = 1
 c26: <= 1
 c27: x23 + x24 + x29 + x30 <= 1
 c28: <= 1
 c29: <= 1
 c30: <= 1
 c31: x17 + x19 + x26 + x28 + x30 + x31 <= 1
 c32: x19 + x26 + x28 + x30 + x31 <= 1
 c33: 13.386312 x2 + 37.148942 x3 + 75.980505 x4 + 19.478125 x7 + 19.478125 x8
      + 19.478125 x9 + 49.242701 x10 + 49.242701 x11 + 55.548258 x12
      + 13.386312 x14 + 13.386312 x15 + 29.67156 x16 + 27.940397 x18
      + 25.59366 x19 + 80.311737 x22 + 54.841906 x23 + 82.782303 x24
      + 52.37134 x25 + 50.789959 x26 + 53.136696 x27 + 53.534057 x28
      + 55.607262 x29 + 53.260525 x30 + 25.59366 x31 >= 150
 c34: 52.055998 x1 + 73.747111 x2 + 52.055998 x3 + 74.897214 x5 + 50.755731 x6
      + 59.852698 x7 + 45.832596 x8 + 58.426742 x9 + 25.298866 x10
      + 25.298866 x11 + 25.298866 x12 + 58.426742 x13 + 58.426742 x14
      + 36.735629 x15 + 54.20019 x16 + 84.220038 x17 + 54.20019 x18
      + 54.918266 x19 + 54.20019 x20 + 78.106201 x21 + 23.906011 x23
      + 23.906011 x25 + 30.019848 x26 + 23.906011 x27 + 30.019848 x28
      + 23.906011 x29 + 30.019848 x30 + 30.019848 x31 >= 150
 c35: x1 + x2 + x3 + x4 + x5 + x6 + x7 + x8 + x9 + x10 + x11 + x12 + x13 + x14
      + x15 + x16 + x17 + x18 + x19 + x20 + x21 + x22 + x23 + x24 + x25 + x26
      + x27 + x28 + x29 + x30 + x31 >= 4
 c36: x1 + x2 + x3 + x4 + x5 + x6 + x7 + x8 + x9 + x10 + x11 + x12 + x13 + x14
      + x15 + x16 + x17 + x18 + x19 + x20 + x21 + x22 + x23 + x24 + x25 + x26
      + x27 + x28 + x29 + x30 + x31 <= 14
 c37: x2 + x5 + x6 + x7 + x9 + x13 + x14 <= 1
 c38: x22 + x23 + x25 + x27 <= 1
 c39: x22 + x24 + x25 + x27 <= 1
Bounds
 0 <= x1 <= 1
 0 <= x2 <= 1
 0 <= x3 <= 1
 0 <= x4 <= 1
 0 <= x5 <= 1
 0 <= x6 <= 1
 0 <= x7 <= 1
 0 <= x8 <= 1
 0 <= x9 <= 1
 0 <= x10 <= 1
 0 <= x11 <= 1
 0 <= x12 <= 1
 0 <= x13 <= 1
 0 <= x14 <= 1
 0 <= x15 <= 1
 0 <= x16 <= 1
 0 <= x17 <= 1
 0 <= x18 <= 1
 0 <= x19 <= 1
 0 <= x20 <= 1
 0 <= x21 <= 1
 0 <= x22 <= 1
 0 <= x23 <= 1
 0 <= x24 <= 1
 0 <= x25 <= 1
 0 <= x26 <= 1
 0 <= x27 <= 1
 0 <= x28 <= 1
 0 <= x29 <= 1
 0 <= x30 <= 1
 0 <= x31 <= 1
End
