\ENCODING=ISO-8859-1
\Problem name: MasterModelWithSR

Minimize
 obj: 327.7833419 x1 + 330.5118113 x2 + 380.5469048 x3 + 286.8389316 x4
      + 286.8389316 x5 + 318.688179 x6 + 261.4920129 x7 + 309.0636331 x8
      + 280.3896786 x9 + 311.5334316 x10 + 278.3691807 x11 + 278.3691807 x12
      + 295.6703254 x13 + 295.6703254 x14 + 289.7736526 x15 + 290.1156724 x16
      + 257.2899783 x17 + 344.266656 x18 + 308.5696112 x19 + 328.6236235 x20
      + 270.5469444 x21 + 290.7253942 x22 + 306.0312106 x23 + 256.7035735 x24
      + 256.7035735 x25 + 269.7993634 x26 + 272.9005153 x27 + 270.4594671 x28
      + 287.9282266 x29 + 252.7027274 x30
Subject To
 c1:  x1 + x2 + x3 <= 1
 c2:  x4 + x5 <= 1
 c3:  x1 + x2 + x3 + x6 + x7 + x8 <= 1
 c4:  x3 <= 1
 c5:  x4 + x5 <= 1
 c6:  x3 <= 1
 c7:  x4 + x5 <= 1
 c8:  x1 + x2 + x3 + x6 + x8 + x9 <= 1
 c9:  x8 + x9 + x10 <= 1
 c10: x11 + x12 <= 1
 c11: x11 + x12 + x13 + x14 <= 1
 c12: x2 + x8 + x9 + x10 + x15 + x16 <= 1
 c13: x11 + x12 + x13 + x14 <= 1
 c14: x2 + x16 + x17 <= 1
 c15: x13 + x14 <= 1
 c16: <= 1
 c17: x18 + x19 + x20 + x21 + x22 + x23 <= 1
 c18: x24 + x25 <= 1
 c19: x18 <= 1
 c20: x24 + x25 + x26 + x27 <= 1
 c21: x18 + x19 + x20 + x22 + x23 <= 1
 c22: x6 + x7 + x10 + x15 + x16 + x17 <= 1
 c23: x20 + x24 + x25 + x27 + x28 <= 1
 c24: x6 + x7 + x10 + x15 + x16 + x17 <= 1
 c25: x23 + x27 <= 1
 c26: <= 1
 c27: x29 <= 1
 c28: <= 1
 c29: <= 1
 c30: <= 1
 c31: x19 + x21 + x26 + x28 + x29 + x30 <= 1
 c32: x21 + x26 + x28 + x29 + x30 <= 1
 c33: 13.386312 x2 + 37.148942 x3 + 75.980505 x4 + 75.980505 x5 + 19.478125 x8
      + 19.478125 x9 + 19.478125 x10 + 49.242701 x11 + 49.242701 x12
      + 55.548258 x13 + 55.548258 x14 + 13.386312 x16 + 13.386312 x17
      + 29.67156 x18 + 27.940397 x20 + 25.59366 x21 + 80.311737 x24
      + 80.311737 x25 + 50.789959 x26 + 53.136696 x27 + 53.534057 x28
      + 53.260525 x29 + 25.59366 x30 >= 150
 c34: 52.055998 x1 + 73.747111 x2 + 52.055998 x3 + 74.897214 x6 + 50.755731 x7
      + 59.852698 x8 + 45.832596 x9 + 58.426742 x10 + 25.298866 x11
      + 25.298866 x12 + 25.298866 x13 + 25.298866 x14 + 58.426742 x15
      + 58.426742 x16 + 36.735629 x17 + 54.20019 x18 + 84.220038 x19
      + 54.20019 x20 + 54.918266 x21 + 54.20019 x22 + 78.106201 x23
      + 30.019848 x26 + 23.906011 x27 + 30.019848 x28 + 30.019848 x29
      + 30.019848 x30 >= 150
 c35: x1 + x2 + x3 + x4 + x5 + x6 + x7 + x8 + x9 + x10 + x11 + x12 + x13 + x14
      + x15 + x16 + x17 + x18 + x19 + x20 + x21 + x22 + x23 + x24 + x25 + x26
      + x27 + x28 + x29 + x30 >= 4
 c36: x1 + x2 + x3 + x4 + x5 + x6 + x7 + x8 + x9 + x10 + x11 + x12 + x13 + x14
      + x15 + x16 + x17 + x18 + x19 + x20 + x21 + x22 + x23 + x24 + x25 + x26
      + x27 + x28 + x29 + x30 <= 14
 c37: x2 + x6 + x7 + x8 + x10 + x15 + x16 <= 1
Bounds
 0 <= x1 <= 1
 0 <= x2 <= 1
 0 <= x3 <= 1
 0 <= x4 <= 1
 0 <= x5 <= 1
 0 <= x6 <= 1
 0 <= x7 <= 1
 0 <= x8 <= 1
 0 <= x9 <= 1
 0 <= x10 <= 1
 0 <= x11 <= 1
 0 <= x12 <= 1
 0 <= x13 <= 1
 0 <= x14 <= 1
 0 <= x15 <= 1
 0 <= x16 <= 1
 0 <= x17 <= 1
 0 <= x18 <= 1
 0 <= x19 <= 1
 0 <= x20 <= 1
 0 <= x21 <= 1
 0 <= x22 <= 1
 0 <= x23 <= 1
 0 <= x24 <= 1
 0 <= x25 <= 1
 0 <= x26 <= 1
 0 <= x27 <= 1
 0 <= x28 <= 1
 0 <= x29 <= 1
 0 <= x30 <= 1
End
